data;
set A := 1, 2, 3, 4, 5, 6, 7, 8, 9, 10, 11, 12, 13, 14, 15, 16, 17, 18, 19, 20, 21, 22, 23, 24, 25, 26, 27, 28, 29, 30, 31, 32, 33, 34, 35, 36, 37, 38, 39, 40, 41, 42, 43, 44, 45, 46, 47, 48, 49, 50, 51, 52, 53, 54, 55, 56, 57, 58, 59, 60, 61, 62, 63, 64, 65, 66, 67, 68, 69, 70, 71, 72, 73, 74, 75, 76, 77, 78, 79, 80, 81, 82, 83, 84, 85, 86, 87, 88, 89, 90, 91, 92, 93, 94, 95, 96, 97, 98, 99, 100;
param p := 14;
param dist: 1 2 3 4 5 6 7 8 9 10 11 12 13 14 15 16 17 18 19 20 21 22 23 24 25 26 27 28 29 30 31 32 33 34 35 36 37 38 39 40 41 42 43 44 45 46 47 48 49 50 51 52 53 54 55 56 57 58 59 60 61 62 63 64 65 66 67 68 69 70 71 72 73 74 75 76 77 78 79 80 81 82 83 84 85 86 87 88 89 90 91 92 93 94 95 96 97 98 99 100:=
1	0 9 9 9 9 9 9 9 9 9 9 9 9 9 9 9 2 9 0 9 9 9 9 9 9 9 9 9 9 9 4 9 9 9 9 9 9 9 9 9 9 9 9 9 9 9 9 9 9 9 9 9 9 9 9 9 1 9 9 9 9 9 9 9 9 9 9 9 9 9 9 9 9 9 9 9 9 9 9 9 0 9 9 9 1 9 9 9 9 9 9 9 9 9 9 0 9 3 2 3 
2	9 0 9 9 9 9 9 9 9 0 9 9 9 9 9 9 9 9 9 1 9 9 9 9 9 9 9 9 2 9 9 0 3 9 9 9 9 9 9 9 9 9 2 9 9 4 3 9 9 3 9 9 9 9 9 9 9 9 9 1 9 9 9 9 9 9 9 9 9 9 9 9 9 9 9 9 9 9 9 9 9 9 9 9 9 9 9 9 9 9 9 9 9 9 9 9 9 9 9 9 
3	9 9 0 9 9 9 9 9 9 9 9 9 9 0 0 9 9 9 9 9 9 9 9 2 4 9 9 9 9 9 9 9 9 9 9 9 9 9 9 9 9 9 9 9 4 9 9 9 9 9 9 9 9 9 9 9 9 9 9 9 9 9 9 9 9 9 9 9 9 9 9 9 9 9 0 9 9 9 9 9 9 9 9 9 9 9 0 9 9 2 0 3 9 9 9 9 9 9 9 9 
4	9 9 9 0 9 9 9 9 9 9 9 9 9 9 9 9 9 9 9 9 9 9 9 9 9 9 9 9 9 9 9 9 9 9 9 9 9 9 9 9 4 9 9 9 9 9 9 9 9 9 9 9 9 9 9 9 9 9 9 9 9 9 9 9 9 9 9 3 9 2 9 9 9 9 9 4 0 9 9 9 9 9 0 9 9 2 9 4 4 9 9 9 9 3 9 9 9 9 9 9 
5	9 9 9 9 0 9 9 9 9 9 4 9 9 9 9 9 2 9 9 9 9 9 9 9 4 9 9 0 9 9 9 9 9 9 9 9 9 9 9 9 9 9 4 9 9 9 9 9 9 9 9 1 1 9 9 9 9 9 9 9 9 9 9 9 9 9 9 9 9 9 1 9 9 9 9 9 9 9 1 9 9 9 4 9 9 9 9 9 9 9 9 9 9 9 9 9 9 9 9 9 
6	2 9 9 9 0 0 9 9 9 9 9 9 9 9 9 9 9 9 9 9 9 9 9 9 9 9 9 9 9 9 9 9 3 9 0 9 9 9 9 9 9 9 9 9 2 9 9 9 9 9 9 9 9 9 9 9 9 9 9 9 9 9 9 9 9 9 9 9 9 9 9 2 9 0 9 9 9 9 4 9 9 9 0 9 9 9 9 9 2 9 9 9 9 9 9 9 9 9 9 9 
7	9 9 9 9 9 9 0 9 9 9 9 2 9 9 9 9 0 9 9 9 9 9 9 9 9 9 0 9 9 9 4 9 9 9 9 9 9 9 9 9 9 9 9 9 9 1 9 3 9 1 9 9 9 4 9 9 9 9 4 9 9 9 9 9 9 9 9 9 9 9 9 9 9 9 4 9 9 9 9 9 9 9 9 9 9 9 9 9 9 9 9 9 9 9 9 9 9 9 9 9 
8	2 9 9 9 9 9 9 2 1 9 9 9 9 9 9 9 9 9 9 9 9 9 9 9 9 9 9 9 9 9 9 9 9 9 9 9 2 9 9 9 2 9 9 9 9 9 9 0 9 9 9 9 9 9 9 9 9 9 0 9 9 9 9 3 9 9 9 9 9 9 9 9 9 9 9 9 9 9 9 9 9 9 9 4 9 9 9 3 9 9 9 9 9 9 9 9 9 9 9 9 
9	9 9 9 9 9 9 9 9 0 9 9 9 9 9 9 9 9 9 9 9 9 9 4 1 9 9 1 9 9 9 9 9 9 9 9 9 9 9 0 9 9 9 9 9 9 9 9 9 9 9 9 3 9 9 9 9 9 9 9 9 9 9 9 9 9 9 9 9 9 9 9 9 9 9 9 1 9 9 9 9 9 9 9 2 9 9 0 9 2 9 9 9 2 9 9 9 9 9 9 9 
10	9 9 9 9 9 9 9 9 9 0 9 9 9 9 9 9 9 9 9 9 9 9 4 9 9 9 9 9 9 9 9 9 9 9 9 9 9 9 9 9 9 9 9 9 9 9 9 9 9 9 9 9 9 9 9 9 9 9 9 1 9 9 1 9 3 9 9 2 1 9 9 9 4 9 2 9 2 9 9 0 9 9 9 9 9 9 9 9 9 9 9 9 9 9 9 9 9 9 9 9 
11	4 9 9 0 9 9 9 9 9 9 0 9 9 2 9 0 9 9 9 9 9 9 9 9 9 9 9 9 9 9 9 9 9 9 9 9 9 9 9 9 9 9 9 9 9 9 3 9 9 4 9 9 9 9 9 9 9 1 9 9 9 9 9 9 9 9 9 9 9 1 9 9 9 9 9 9 9 1 9 9 2 9 9 9 9 9 9 9 9 9 9 9 9 9 9 9 9 9 9 9 
12	9 9 9 9 9 9 9 9 9 9 9 0 1 9 9 3 9 9 9 9 3 9 9 9 9 9 9 9 2 2 3 9 9 9 9 2 9 9 3 9 9 9 9 1 9 9 9 9 1 9 9 9 9 9 9 9 9 9 9 9 9 9 9 9 9 9 9 9 9 9 9 9 9 9 9 9 9 9 9 9 9 9 9 9 9 9 9 9 9 9 9 9 9 9 9 9 9 9 9 9 
13	9 9 9 9 9 9 9 9 9 9 9 9 0 9 9 9 9 9 9 9 9 9 9 9 9 9 9 9 9 3 9 9 9 9 9 9 9 9 4 9 9 4 9 9 9 9 9 9 9 9 9 9 9 9 2 9 9 9 9 9 9 9 9 9 9 9 9 9 9 9 9 9 9 9 9 9 9 9 9 9 9 9 9 0 9 9 9 9 9 9 9 9 9 1 9 9 3 1 0 3 
14	9 9 9 2 9 9 9 0 9 9 9 9 9 0 9 9 9 0 9 9 9 9 9 9 9 9 9 9 9 9 9 9 9 9 9 9 1 9 9 9 9 0 9 9 9 9 9 9 9 9 9 9 9 9 9 9 9 9 9 9 9 9 3 9 9 9 9 9 9 9 9 9 9 9 9 9 9 9 9 2 1 9 9 9 3 9 4 9 9 9 9 9 9 9 9 9 9 9 9 9 
15	9 9 9 9 9 9 9 9 9 9 9 9 9 9 4 9 9 9 9 9 9 9 9 1 9 1 9 9 9 9 9 9 9 9 9 9 9 9 9 9 9 9 9 2 9 9 9 1 9 9 9 9 9 9 9 9 9 9 9 9 9 9 9 9 9 9 9 9 9 9 9 9 9 9 9 9 9 9 9 9 9 9 9 9 9 9 9 9 9 1 9 9 9 9 1 9 0 2 9 2 
16	9 9 9 9 9 9 9 4 9 9 9 9 9 9 2 4 9 9 2 9 9 9 9 9 9 9 9 9 9 9 3 9 9 1 9 9 9 1 0 9 9 9 4 9 9 9 9 9 9 9 9 9 1 9 9 9 9 9 9 9 9 9 9 9 9 9 9 9 9 9 9 9 9 9 9 9 9 9 9 9 9 9 9 9 9 9 9 9 9 9 9 9 9 9 9 9 9 9 9 9 
17	9 9 9 9 9 9 9 9 9 2 9 9 9 9 9 9 0 9 9 9 9 9 1 9 9 4 9 9 9 9 9 9 9 9 9 9 9 9 9 9 9 9 9 9 9 9 9 9 9 9 9 9 9 9 9 9 9 9 9 9 9 9 1 9 9 9 9 9 9 0 9 9 9 9 9 9 3 9 9 9 9 9 9 9 9 9 9 9 9 9 9 9 9 9 0 4 1 9 9 0 
18	9 9 9 9 9 9 9 1 9 9 9 9 9 9 9 9 9 2 9 9 9 9 9 9 3 9 9 9 9 9 9 9 9 9 9 9 9 9 9 9 9 9 9 9 9 9 9 9 9 9 9 9 9 9 9 3 9 9 9 9 9 0 9 9 9 9 3 9 9 9 9 9 9 9 9 9 9 9 9 9 9 9 9 0 9 9 9 1 9 9 9 1 4 9 9 9 9 9 9 9 
19	9 4 9 2 9 9 9 9 9 9 9 4 9 9 9 9 9 9 0 9 9 9 9 9 9 9 9 9 9 3 4 9 9 9 9 9 9 9 9 9 9 9 9 9 9 9 9 9 9 9 9 1 9 0 9 9 9 9 9 9 9 9 3 9 9 9 9 9 9 9 9 9 9 9 9 9 9 9 9 9 9 9 9 0 9 9 9 2 9 9 9 9 9 9 9 9 9 9 9 9 
20	9 9 9 1 9 9 9 9 9 9 9 9 9 9 9 9 9 9 9 0 1 9 9 9 1 9 9 9 9 9 9 9 9 9 9 9 9 9 9 9 9 9 9 9 9 9 9 9 4 9 9 0 9 9 9 4 9 9 9 9 0 9 9 9 9 9 9 9 9 9 9 9 9 9 9 9 9 9 1 9 9 9 9 9 9 9 9 9 9 1 9 9 9 9 9 9 9 0 9 9 
21	9 0 9 9 9 9 9 9 9 9 9 9 9 9 9 9 9 9 3 9 0 9 2 9 9 9 9 9 9 9 9 9 9 9 9 9 9 9 9 9 9 9 9 9 9 9 9 9 9 9 9 9 9 9 9 9 9 9 9 9 9 9 9 9 9 0 0 4 9 9 9 4 9 9 9 9 9 9 2 9 9 3 9 9 9 0 9 9 9 9 9 9 9 9 9 9 9 9 9 9 
22	3 9 9 9 3 9 9 9 9 3 9 9 9 1 9 9 9 9 9 9 9 0 9 9 9 9 4 1 9 9 9 9 9 9 9 9 0 9 9 9 9 9 9 9 9 9 9 1 9 9 9 1 9 9 9 9 2 9 9 9 9 9 9 9 9 9 9 9 9 9 9 9 9 9 9 9 9 9 9 9 9 9 9 9 9 9 9 9 9 9 9 9 9 9 9 9 9 9 9 9 
23	9 9 9 9 9 9 9 9 9 9 9 9 9 9 9 9 9 9 9 9 9 9 0 9 9 9 9 9 9 9 9 9 9 9 9 9 9 9 9 9 9 9 9 2 9 9 9 9 9 9 9 9 9 9 9 9 9 9 9 9 9 9 9 9 9 9 9 2 9 9 9 9 9 9 9 9 9 9 9 9 9 2 9 9 9 9 9 9 9 9 9 9 9 0 0 1 0 1 0 1 
24	4 9 9 9 9 9 9 9 9 9 9 9 9 9 9 0 9 9 9 9 9 9 9 0 9 9 1 9 9 9 9 9 9 9 9 9 9 9 9 9 9 9 9 9 9 9 9 9 9 1 9 9 9 9 9 9 9 9 9 9 9 9 9 3 9 9 9 9 9 9 9 3 9 9 9 9 9 3 9 9 9 9 9 9 9 9 0 9 9 9 9 9 3 3 9 9 9 9 9 9 
25	9 9 9 9 9 9 9 9 9 9 9 4 9 9 9 9 9 9 3 9 9 9 9 4 0 9 9 4 9 9 9 4 9 9 9 9 9 0 9 0 9 9 9 9 9 9 1 9 9 3 4 9 9 9 9 9 9 9 9 9 9 9 9 9 9 9 9 9 9 9 9 9 9 9 9 9 9 9 9 9 9 9 9 9 9 9 9 9 9 9 9 9 9 9 9 9 9 9 9 9 
26	9 9 9 9 9 9 9 9 9 9 9 9 9 1 9 9 9 9 9 9 0 9 9 9 9 4 9 9 0 4 9 9 9 2 9 9 9 9 9 9 9 9 9 9 9 9 9 9 9 9 9 9 9 9 9 3 9 9 9 9 9 9 9 9 9 1 9 9 0 9 9 9 9 9 9 9 9 9 9 9 9 9 9 9 9 9 9 9 9 4 9 9 9 9 9 9 9 9 9 9 
27	2 9 9 9 9 9 9 9 9 9 3 9 9 9 4 9 9 9 9 9 9 9 9 4 9 9 0 9 9 9 9 9 9 9 0 4 9 9 9 9 9 9 9 9 9 9 9 3 9 9 9 9 9 9 9 9 9 0 1 9 1 9 9 9 9 9 9 9 9 9 9 9 9 9 9 9 9 9 9 9 9 9 9 9 9 9 9 9 9 9 9 9 9 9 9 9 9 9 9 9 
28	9 9 9 9 9 2 9 9 9 9 9 9 9 9 9 9 9 3 9 9 9 9 9 9 9 9 9 0 9 9 9 9 9 9 9 9 9 9 9 9 9 9 9 9 9 1 9 9 9 9 9 9 9 3 9 9 9 9 9 9 9 9 9 9 9 9 9 9 9 9 9 9 9 9 9 9 9 2 9 9 9 3 9 9 9 9 9 9 9 9 9 0 1 1 9 0 9 9 9 9 
29	9 9 9 9 9 9 9 9 3 9 9 9 9 9 1 9 9 9 1 9 9 9 9 9 4 2 9 9 0 9 9 9 4 9 9 9 9 9 9 9 9 0 9 9 9 9 9 9 9 9 9 9 9 9 9 9 9 9 9 9 9 9 9 0 9 9 9 2 9 9 9 9 0 9 9 9 9 9 9 9 9 9 9 9 9 9 9 9 9 9 9 9 9 9 9 9 9 9 9 9 
30	9 9 9 9 9 9 9 9 9 9 9 9 9 9 9 9 9 9 9 9 9 9 9 4 9 9 9 9 9 3 9 9 9 9 9 4 9 9 9 9 9 9 9 9 9 9 9 9 9 9 9 9 9 9 9 9 9 9 9 1 9 9 9 9 9 9 9 1 9 9 9 9 9 9 9 9 9 0 2 9 9 1 9 9 9 9 9 9 9 3 9 4 9 9 9 9 9 9 9 9 
31	9 9 3 9 9 9 9 9 9 9 9 9 9 9 9 9 9 3 9 3 9 1 9 9 9 4 9 9 9 9 3 9 9 9 9 9 9 4 9 1 3 9 9 9 9 9 9 9 9 9 9 9 9 9 9 9 9 9 9 9 9 2 9 9 9 9 9 9 9 9 9 9 9 9 9 9 9 9 9 9 9 9 9 9 9 9 9 9 9 9 9 9 9 9 9 9 9 9 9 9 
32	9 9 9 9 9 9 9 9 9 0 1 9 3 9 9 9 9 9 9 9 9 2 9 9 9 9 9 9 9 2 9 0 3 9 9 9 3 9 9 9 9 9 9 0 9 9 9 9 9 9 9 9 9 9 1 9 9 9 9 9 9 9 9 9 4 9 9 9 9 9 9 9 9 9 9 9 9 9 9 9 9 9 9 9 9 9 9 9 9 9 9 9 9 9 9 9 9 9 9 9 
33	9 9 9 9 9 9 9 9 9 9 9 9 9 9 9 1 9 9 9 9 9 9 9 9 9 9 9 0 9 9 9 9 0 9 9 9 9 9 9 9 9 9 9 9 9 9 9 9 9 9 9 9 9 9 9 9 9 9 4 9 9 9 9 9 9 9 9 9 9 9 9 9 9 3 9 9 4 9 9 9 9 4 1 9 9 9 3 9 9 9 9 9 9 9 9 0 0 9 9 9 
34	9 1 9 9 9 9 9 9 9 9 9 9 1 9 9 9 9 0 9 9 9 9 9 9 9 9 4 9 9 9 9 9 9 0 9 9 9 9 0 9 9 9 9 9 9 9 9 9 9 9 4 9 9 9 9 9 9 9 9 9 1 9 9 9 9 9 9 9 9 9 3 9 9 9 9 9 9 9 9 0 9 9 9 9 9 9 9 9 9 9 9 9 9 9 9 9 9 9 9 9 
35	9 9 9 9 9 9 9 9 9 9 9 9 9 9 9 9 9 9 9 9 9 0 9 9 9 9 9 9 9 9 9 9 9 9 0 9 9 9 9 3 9 9 9 9 9 9 9 4 9 9 9 9 9 9 9 9 9 9 0 9 9 9 9 9 9 9 2 9 9 9 9 9 9 9 9 9 9 9 9 9 0 9 9 9 9 9 9 9 9 0 9 9 0 9 2 9 9 9 3 9 
36	9 9 4 9 9 9 9 9 9 9 9 9 9 1 9 9 4 9 9 9 9 9 9 2 9 9 9 9 9 9 9 9 9 1 9 0 9 9 9 9 9 4 9 9 9 9 0 9 9 9 9 9 9 9 0 9 9 9 9 0 9 2 9 9 9 9 9 9 9 9 9 9 9 9 9 9 9 9 9 9 9 9 9 9 9 9 9 9 9 9 9 9 9 9 9 9 9 9 9 9 
37	9 9 9 9 9 9 1 9 9 9 2 9 9 0 0 9 9 9 9 9 9 9 9 9 9 9 9 9 9 9 1 9 9 0 9 9 0 9 9 9 9 9 1 9 9 9 9 9 2 9 9 9 9 9 9 9 9 9 9 4 9 2 9 9 9 9 9 9 9 9 9 9 9 9 9 9 9 9 9 9 9 9 9 9 9 9 9 9 9 9 9 9 9 9 9 9 9 9 9 9 
38	9 9 9 9 9 1 9 9 3 9 9 9 9 9 9 9 9 9 9 9 9 9 9 9 9 9 9 9 9 9 9 2 9 9 9 9 9 0 9 9 9 9 3 9 4 9 9 9 4 9 9 9 9 9 9 9 9 9 9 9 9 0 9 9 9 9 9 9 9 9 9 9 9 9 9 9 9 9 2 9 9 1 9 9 4 9 9 9 9 9 9 9 9 9 9 9 9 9 9 9 
39	9 9 9 9 9 9 9 9 0 9 9 9 9 9 9 9 9 9 9 9 1 9 9 9 9 4 9 9 9 0 9 0 9 9 9 9 3 9 1 2 9 9 9 9 9 9 9 1 9 9 9 9 9 1 9 9 9 9 9 9 9 9 9 9 9 9 9 9 9 9 9 9 9 9 9 9 9 9 9 9 9 9 9 9 9 9 9 9 9 9 9 9 9 9 9 9 9 9 9 9 
40	9 9 1 9 9 9 9 9 9 9 9 3 9 9 9 9 0 9 9 9 9 9 9 9 0 9 9 9 9 9 9 9 9 4 9 9 9 9 9 0 9 9 9 9 3 9 3 9 9 9 9 9 9 9 9 9 9 9 9 9 9 9 9 9 9 9 4 9 9 9 9 9 9 2 3 9 9 9 9 9 9 9 9 9 9 9 9 9 9 9 9 9 9 9 9 9 9 9 9 9 
41	9 9 9 9 9 9 9 9 9 9 9 4 9 9 9 9 9 9 9 4 1 9 9 9 9 9 9 9 9 9 9 9 9 9 9 9 9 9 2 9 0 9 9 9 9 1 9 9 9 9 9 9 9 9 2 9 9 9 9 9 9 9 9 9 9 9 9 9 4 9 9 9 9 9 9 9 9 9 9 9 9 9 9 9 9 9 9 2 1 9 2 9 9 9 9 9 9 9 9 9 
42	9 9 9 9 9 9 1 9 9 9 9 9 9 9 9 9 9 9 2 9 9 0 9 9 9 9 9 9 9 9 9 0 2 9 9 9 9 9 9 9 9 2 9 9 1 9 9 9 9 9 9 9 9 9 3 9 9 9 9 9 9 9 9 9 9 9 9 9 9 9 1 9 9 9 9 9 9 0 9 9 9 9 9 9 9 9 9 9 9 9 9 9 9 9 9 9 9 9 9 9 
43	9 9 9 9 9 3 9 9 0 2 9 9 9 9 9 9 9 3 9 9 9 9 4 9 9 9 9 9 9 9 9 9 9 9 9 9 9 9 9 0 9 9 0 9 9 9 0 9 3 9 9 9 9 9 9 9 9 9 9 9 9 9 9 9 9 9 9 9 1 4 9 9 9 9 9 9 9 9 9 9 9 9 9 9 9 9 9 9 9 9 9 9 9 9 9 9 9 9 9 9 
44	9 9 9 9 9 4 9 9 9 9 9 3 9 9 9 9 9 9 9 9 9 9 1 9 2 9 9 9 9 9 9 2 9 9 9 9 9 9 9 9 2 9 9 0 9 9 9 9 9 9 9 9 9 9 9 9 9 3 9 9 9 9 9 9 9 9 9 9 9 9 0 9 9 9 9 9 9 9 9 9 9 9 9 9 9 9 1 9 9 3 9 9 9 9 9 9 9 9 9 9 
45	9 9 9 9 9 0 1 9 9 9 9 9 9 9 9 9 9 9 9 9 9 9 9 9 9 9 9 9 9 9 9 9 9 9 4 9 9 9 9 9 9 0 9 9 0 9 9 9 9 9 9 9 9 9 9 9 4 9 9 3 9 9 9 2 9 9 9 9 9 9 9 2 9 9 9 2 9 9 4 9 9 9 9 9 9 9 9 9 9 9 9 9 9 9 9 9 9 9 9 9 
46	9 9 1 9 9 9 9 9 9 9 9 4 0 2 9 9 9 9 9 9 9 9 9 9 9 9 9 9 9 9 9 9 9 9 9 9 0 9 9 9 9 9 9 9 9 0 9 9 9 9 9 9 9 2 9 4 9 2 3 9 9 9 9 9 9 9 9 9 9 9 9 9 9 9 9 9 9 9 9 9 2 9 9 9 9 9 9 9 9 9 9 9 9 9 9 9 9 9 9 9 
47	9 9 9 9 9 9 9 9 9 9 9 9 9 9 9 9 9 9 9 9 9 9 9 9 9 9 9 9 9 9 9 9 9 9 9 9 9 9 9 9 9 9 9 9 9 9 4 9 9 9 9 9 9 9 9 4 9 9 9 9 9 9 4 9 9 9 9 9 9 1 9 9 9 9 2 9 9 9 9 9 9 9 9 9 9 9 9 9 9 9 9 1 9 9 9 3 9 2 0 1 
48	9 9 9 9 9 9 9 9 9 9 9 9 9 9 9 9 9 9 9 9 9 9 9 9 9 9 9 3 9 9 9 9 9 9 9 9 9 9 9 9 9 9 9 9 9 9 9 0 9 9 9 2 9 9 9 0 1 4 2 9 0 9 9 9 9 9 9 9 9 9 9 9 4 9 9 9 1 2 9 9 9 9 9 9 9 9 9 9 9 9 9 9 9 9 9 9 9 9 9 9 
49	9 9 9 9 9 9 9 9 9 9 9 9 9 2 2 9 9 9 9 9 9 9 9 9 9 9 9 9 9 9 9 9 9 9 9 9 9 9 9 9 9 9 9 9 9 9 9 9 0 9 9 9 4 9 9 9 9 9 9 9 9 9 9 9 9 9 9 9 9 2 0 4 9 9 9 9 9 9 9 9 9 9 0 9 9 3 9 9 4 9 3 9 9 9 9 9 9 9 9 9 
50	9 9 9 9 9 9 9 9 9 9 9 9 9 9 9 9 1 9 9 9 9 9 9 9 9 4 9 9 9 9 2 9 9 9 9 9 9 9 9 9 9 9 9 9 9 9 9 9 9 3 9 9 9 9 9 9 9 9 9 9 9 9 9 9 1 9 9 9 9 9 9 9 9 4 9 9 9 9 9 9 9 9 2 9 0 0 9 1 9 9 9 9 9 9 9 9 9 9 9 9 
51	4 9 9 9 3 9 9 9 9 9 9 2 9 9 9 9 9 9 9 1 9 9 9 9 9 9 2 9 9 9 9 9 9 9 9 9 9 9 9 9 9 9 9 9 9 9 9 9 9 9 0 9 9 9 9 3 9 9 9 9 9 9 9 9 9 9 9 9 9 9 9 9 9 9 9 9 9 9 0 9 9 9 2 2 0 9 9 9 9 9 9 9 9 9 9 9 9 9 9 9 
52	4 9 9 9 9 9 9 0 9 9 9 9 9 9 9 9 9 9 9 9 9 9 9 9 9 9 9 9 3 9 9 9 9 9 9 9 9 0 9 9 9 9 9 9 9 4 9 9 9 9 9 0 3 1 9 9 9 9 9 9 9 9 9 9 9 9 9 9 9 1 9 9 9 1 9 9 0 9 9 9 9 9 9 9 9 9 9 9 9 9 9 9 9 9 9 9 9 9 9 9 
53	9 1 9 9 9 9 9 9 9 9 9 9 9 9 9 9 9 9 9 9 9 9 9 9 9 9 9 9 9 9 9 9 9 9 9 9 9 9 9 9 9 9 9 1 9 9 9 9 9 9 9 9 0 9 9 9 9 9 9 9 9 9 9 9 9 4 9 9 3 1 9 9 9 9 9 9 9 9 9 9 9 9 9 9 9 3 9 9 9 9 9 0 9 9 1 9 3 9 9 3 
54	9 9 9 9 9 9 9 9 9 9 9 9 9 9 9 9 9 9 9 9 9 9 9 9 9 9 9 9 9 9 9 9 9 9 9 9 9 9 9 9 9 9 3 9 9 9 9 9 9 3 9 9 4 0 9 9 9 9 9 0 1 9 9 9 9 9 9 9 9 9 9 9 3 2 9 9 9 9 9 9 4 9 9 9 0 9 4 9 9 9 9 9 9 9 9 9 9 9 9 9 
55	1 9 9 9 9 9 9 9 9 9 9 9 9 9 9 9 9 9 9 9 1 2 9 9 9 9 9 9 3 9 9 9 9 9 9 9 9 9 9 3 3 9 9 9 1 9 9 9 4 9 9 9 9 9 0 9 9 9 9 9 9 9 4 9 9 9 9 9 9 4 9 9 9 9 9 9 9 9 9 9 9 9 9 9 9 9 9 9 9 9 9 9 9 9 9 9 9 9 9 9 
56	9 9 9 9 9 9 9 9 9 9 9 9 9 9 9 9 9 9 9 9 9 9 9 9 9 9 9 9 9 9 9 9 9 9 9 9 9 9 9 9 9 9 9 9 9 9 9 9 9 3 9 9 9 9 9 0 9 9 9 9 9 0 9 9 9 9 4 9 4 9 9 9 1 9 9 4 9 9 9 9 9 9 4 9 9 9 9 9 9 9 9 0 9 9 3 9 9 9 1 9 
57	9 9 9 9 0 9 9 9 9 9 3 9 9 9 9 9 9 9 9 9 9 9 9 9 9 9 9 9 9 9 9 1 9 9 9 9 9 9 9 9 9 9 9 9 9 9 9 9 9 9 9 9 9 9 9 1 0 9 3 9 9 9 9 3 9 9 9 9 1 9 9 9 0 4 9 9 9 9 9 9 9 1 9 9 9 9 9 9 9 9 9 9 9 9 9 9 9 9 9 9 
58	9 9 9 9 9 9 9 9 9 9 9 9 9 9 9 9 9 9 9 0 9 9 9 9 9 9 9 9 9 9 9 2 9 9 9 4 3 9 9 9 9 9 9 9 9 9 9 9 0 9 9 9 9 9 9 9 9 0 9 9 9 4 9 9 9 9 9 9 9 9 3 9 9 9 9 9 1 9 9 9 9 9 9 9 9 9 9 0 9 9 9 9 9 9 2 9 9 9 9 9 
59	9 9 4 9 9 9 9 9 9 1 4 9 9 9 9 9 9 9 9 9 9 9 9 9 9 9 9 9 9 9 9 9 9 9 9 9 9 9 9 9 9 9 9 9 9 9 9 9 9 9 9 9 3 4 9 9 9 9 0 9 9 9 9 9 9 9 9 9 9 9 9 2 9 9 9 9 9 9 9 9 9 1 9 9 9 9 9 9 9 9 9 9 9 1 9 9 1 1 9 9 
60	9 9 9 9 9 9 9 4 9 9 9 9 9 9 9 9 9 9 9 9 0 9 9 9 9 9 9 9 9 9 9 9 9 9 9 9 9 9 9 9 9 9 9 9 1 9 9 9 9 9 9 9 9 9 9 9 9 9 9 0 9 9 9 9 9 9 9 9 9 9 9 9 9 9 9 9 9 9 9 9 9 9 9 9 9 9 9 9 1 9 9 9 9 4 4 9 3 4 2 4 
61	9 9 9 9 9 9 9 9 9 9 9 9 9 9 9 9 4 9 9 9 9 3 9 9 9 9 9 9 9 9 9 9 4 9 0 9 9 1 9 9 9 9 9 9 9 9 0 0 9 9 2 9 9 9 2 9 9 0 9 9 0 9 9 9 9 9 9 9 9 9 9 9 9 9 9 9 9 9 9 9 9 9 9 9 9 9 9 9 9 9 9 9 9 9 9 9 9 9 9 9 
62	9 9 9 3 9 9 3 9 9 9 9 9 4 9 0 9 9 2 9 9 9 9 9 9 9 9 0 9 2 9 9 9 9 9 9 9 9 9 9 9 9 2 9 9 2 9 9 9 9 9 9 9 9 9 9 9 3 9 9 9 9 0 9 9 9 9 9 9 9 9 9 9 9 9 9 9 9 9 9 9 9 9 9 9 9 9 9 9 9 9 9 9 9 9 9 9 9 9 9 9 
63	9 9 9 9 9 9 2 9 9 9 9 9 9 9 9 9 0 9 1 9 9 9 9 9 9 9 9 9 9 9 9 9 9 9 0 9 9 9 9 2 3 9 9 3 9 9 9 9 9 9 4 9 1 9 9 9 2 9 9 9 9 9 0 9 9 9 9 9 9 9 9 9 9 9 9 9 9 9 9 9 9 9 9 9 9 9 9 9 9 9 9 9 9 9 9 9 9 9 9 9 
64	9 9 9 9 9 9 9 9 3 9 9 9 9 9 9 9 9 9 9 9 9 9 9 9 9 3 9 9 9 9 9 1 9 9 9 9 9 9 9 9 9 9 9 9 9 9 9 9 9 9 9 9 4 9 9 9 9 2 9 4 9 9 9 0 9 9 9 9 9 9 9 9 9 9 9 3 9 9 9 4 9 9 9 3 9 9 9 1 9 9 9 9 9 9 9 9 9 9 9 9 
65	9 9 9 9 9 9 9 9 9 9 9 9 9 9 9 9 9 9 9 0 9 9 9 9 9 9 9 9 9 9 9 9 9 0 9 9 9 9 0 9 9 9 9 9 9 9 9 9 1 9 9 9 9 9 9 9 9 9 9 9 3 9 9 9 0 9 9 9 9 9 9 9 9 9 3 9 9 9 2 9 9 9 9 9 9 9 0 9 2 9 9 1 9 9 9 9 9 9 9 9 
66	9 3 9 9 9 9 9 9 9 9 2 9 9 9 9 4 9 9 9 9 9 9 9 9 9 9 9 0 9 9 9 9 9 9 9 1 9 9 9 9 9 9 9 9 3 9 9 9 9 9 9 9 9 9 9 9 2 9 9 9 9 9 9 9 9 4 2 9 2 9 9 9 9 9 9 9 9 9 9 9 9 9 9 9 9 9 9 9 9 9 9 9 9 9 9 9 9 9 9 9 
67	9 9 9 9 9 9 9 9 9 3 9 9 9 9 9 9 9 9 9 9 9 9 9 3 9 9 9 9 9 9 9 9 4 9 9 9 9 9 9 9 9 9 9 9 9 9 9 2 9 9 9 9 9 9 9 9 3 9 1 9 3 9 9 9 9 9 0 9 9 9 9 9 1 9 0 9 9 9 9 9 4 9 9 9 9 9 9 9 9 9 9 9 9 9 9 9 9 9 9 9 
68	9 9 9 9 9 9 0 9 9 9 9 9 9 9 9 9 9 9 0 9 9 9 9 9 9 9 9 9 9 9 9 9 3 9 9 9 9 9 9 9 9 9 9 9 9 9 9 9 9 2 9 9 9 9 9 9 9 9 9 9 9 9 9 9 9 9 9 4 9 9 9 9 4 9 9 9 9 1 9 9 3 9 3 9 9 4 9 9 9 9 9 9 9 9 9 9 9 9 9 9 
69	9 9 9 9 9 1 9 9 9 9 3 9 9 9 9 9 9 9 9 9 9 9 9 9 9 9 9 9 9 9 0 9 9 9 9 9 9 3 9 0 9 9 2 9 9 9 9 9 1 9 9 9 9 3 9 9 9 4 9 9 9 9 9 4 9 9 9 9 0 9 9 9 9 9 9 9 9 9 9 9 9 9 9 9 9 9 9 9 9 9 9 9 9 9 9 9 9 9 9 9 
70	9 9 9 9 9 9 9 9 9 9 9 9 9 9 9 9 9 9 9 2 9 9 9 9 9 9 9 9 9 9 9 9 9 9 0 9 9 9 9 9 9 9 9 1 9 9 9 9 9 9 9 0 9 9 9 9 9 9 9 9 9 2 9 1 9 0 9 9 9 0 9 9 9 9 9 9 9 9 9 9 9 9 9 9 9 9 9 9 9 2 4 9 9 9 9 0 9 9 9 9 
71	9 9 4 9 9 4 9 9 0 4 9 9 9 9 9 9 9 9 9 9 9 9 9 9 9 9 9 9 9 9 9 9 9 9 9 2 9 9 9 9 9 9 9 9 9 0 0 9 9 9 9 9 9 9 9 9 4 9 9 9 9 9 9 9 9 9 9 9 9 9 0 9 2 9 9 4 9 9 9 9 9 9 9 9 9 9 9 9 9 9 9 9 9 9 9 9 9 9 9 9 
72	9 9 9 9 9 9 9 1 9 9 9 9 9 9 9 9 9 9 9 9 9 9 9 9 9 9 9 9 0 9 9 9 9 9 9 0 9 9 9 9 9 9 9 9 9 9 9 9 9 9 9 3 9 1 9 9 9 9 1 9 9 9 9 9 9 2 9 9 9 9 9 0 9 9 9 3 9 9 9 2 9 9 9 3 9 9 9 9 9 9 9 9 9 9 9 9 9 9 9 9 
73	9 9 9 9 3 9 9 9 9 4 9 9 9 9 9 9 9 9 9 9 4 9 4 9 9 9 9 9 9 9 9 9 9 9 9 9 9 9 9 9 9 9 9 9 9 4 9 3 9 9 2 9 9 9 9 9 9 9 9 0 9 9 9 3 9 9 9 9 9 9 9 4 0 9 9 9 9 9 9 9 9 9 9 9 9 9 9 9 9 9 9 9 9 9 9 9 9 9 9 9 
74	9 9 9 9 9 3 9 9 9 9 9 9 4 9 9 9 9 9 9 9 9 9 9 9 9 3 9 9 9 9 9 9 9 9 9 9 9 9 9 9 9 9 9 9 9 3 9 9 9 9 9 2 9 9 9 4 9 3 9 9 9 9 9 9 9 9 2 9 9 9 9 0 9 0 9 9 9 9 9 9 9 9 9 9 9 0 9 9 9 9 9 9 9 9 9 9 9 9 9 9 
75	9 9 9 9 9 9 9 3 9 9 9 9 9 9 9 9 9 9 3 9 1 1 9 9 9 9 9 9 9 9 9 9 9 9 9 9 9 9 9 9 9 9 9 9 9 9 9 9 9 9 9 9 9 9 0 9 9 9 9 9 3 9 4 9 4 9 9 9 9 9 9 9 9 3 0 9 0 9 9 9 9 9 9 9 9 9 9 9 9 9 9 9 9 9 9 9 9 9 9 9 
76	9 0 9 9 9 9 1 9 9 9 9 9 9 0 9 9 9 9 9 9 9 4 9 9 9 9 3 9 9 2 9 9 9 9 9 9 9 9 9 9 9 9 9 9 9 9 9 9 9 9 9 9 9 9 9 9 9 9 9 9 9 9 9 9 9 0 9 9 9 9 4 1 9 9 0 0 9 9 9 9 9 9 9 9 9 9 9 9 9 9 9 9 9 9 9 9 9 9 9 9 
77	9 9 9 3 9 9 9 9 9 9 9 9 9 9 9 9 9 9 9 9 9 9 9 9 1 9 9 9 9 9 9 9 9 1 9 9 9 9 9 9 0 3 9 9 9 9 1 9 9 9 9 9 9 9 9 9 9 9 9 9 9 9 9 9 9 9 9 9 9 0 9 9 9 9 0 9 0 9 9 9 9 9 9 9 3 9 9 9 9 9 9 3 9 9 9 9 9 9 9 9 
78	9 9 9 9 9 9 9 9 9 2 9 9 9 9 3 9 9 1 9 9 9 9 9 9 9 9 9 9 3 9 9 9 9 9 9 9 9 9 0 9 9 9 9 9 9 9 9 9 9 9 9 9 1 9 9 9 9 9 9 9 9 9 9 9 9 9 9 9 9 9 9 9 9 9 9 1 9 0 9 9 9 9 9 9 9 2 9 9 9 9 3 9 9 9 9 9 0 9 9 9 
79	9 9 9 9 9 9 9 1 9 9 9 9 9 9 0 9 9 9 9 9 9 9 9 9 9 9 9 0 9 9 9 9 9 9 9 9 1 1 9 1 9 9 9 1 9 9 9 9 9 9 1 9 9 9 9 9 9 9 9 9 9 9 9 9 1 9 9 9 9 9 1 9 9 9 9 9 9 9 0 9 9 9 9 9 9 9 9 9 9 9 9 9 9 9 9 9 9 9 9 9 
80	9 9 9 9 1 9 9 9 9 9 9 9 3 9 9 9 9 9 9 9 9 9 9 9 9 9 9 9 9 9 9 9 3 9 9 9 9 9 9 9 9 9 2 9 9 9 9 9 9 9 9 9 9 9 3 1 9 9 9 9 9 9 2 9 9 9 9 9 9 9 9 9 9 9 9 9 9 3 4 0 9 9 9 9 1 9 9 9 9 9 9 9 9 9 9 9 9 9 9 9 
81	9 9 9 9 9 9 2 9 9 9 9 9 0 9 9 9 9 9 9 9 9 9 2 9 9 9 9 9 9 9 9 9 9 9 9 9 9 9 9 9 9 9 9 9 9 1 9 9 9 9 9 9 9 9 9 9 9 9 9 9 9 9 9 1 9 3 9 9 9 9 9 9 1 9 9 9 9 9 9 2 0 9 9 9 9 9 9 9 9 2 3 9 9 9 9 9 9 9 9 9 
82	9 2 9 9 1 3 2 9 9 9 9 9 9 9 9 9 9 9 9 3 9 9 1 9 9 3 0 9 9 9 9 9 9 2 9 3 9 9 9 9 9 9 9 9 9 9 9 9 9 9 9 9 9 9 9 9 9 9 9 9 9 9 9 9 9 9 9 9 9 9 9 9 9 9 9 9 9 9 9 9 9 0 9 9 9 9 9 9 9 9 9 9 9 9 9 9 9 9 9 9 
83	9 0 9 9 9 9 9 9 9 9 0 9 9 9 9 9 9 9 9 9 9 9 9 9 2 9 9 9 9 9 9 9 9 9 9 9 9 9 9 9 9 9 9 4 9 9 9 9 9 2 4 9 9 9 9 9 9 9 9 9 9 9 9 2 9 1 9 9 9 9 9 9 9 9 9 9 9 1 9 9 9 9 0 9 9 9 9 4 9 9 9 9 9 9 9 9 9 9 9 9 
84	9 4 4 2 9 9 9 9 0 9 9 4 9 9 9 9 9 9 4 9 9 9 9 9 9 9 1 3 9 9 9 9 1 9 9 9 9 9 9 9 2 9 9 9 9 9 9 9 9 9 9 9 9 9 9 9 9 9 9 9 9 9 9 9 9 9 9 9 9 9 9 9 9 9 9 9 9 9 9 9 9 9 9 0 9 9 9 9 9 9 9 9 9 9 9 9 9 9 9 9 
85	9 9 9 9 9 4 3 9 9 9 9 9 9 9 9 9 1 9 9 4 9 9 9 9 9 9 9 2 1 9 9 9 9 9 9 9 9 2 9 9 9 4 9 9 9 9 9 9 9 9 3 9 9 9 9 9 9 9 9 3 9 9 9 9 9 9 9 9 9 9 9 9 9 9 9 9 9 9 9 9 9 9 9 9 0 9 9 9 9 9 9 9 9 9 9 9 9 9 9 9 
86	9 9 9 9 3 9 9 9 9 9 9 9 9 9 9 9 9 9 9 9 9 9 9 9 9 9 9 9 9 9 9 9 9 9 9 9 9 9 9 9 3 0 1 9 9 9 9 9 9 9 9 9 9 0 9 9 9 9 9 9 4 9 9 9 1 9 9 1 9 9 9 9 9 9 9 9 9 9 9 9 9 2 9 9 0 0 9 9 9 9 9 9 9 9 9 9 9 9 9 9 
87	9 9 9 9 9 9 9 9 9 9 9 9 9 9 9 9 9 9 9 9 9 9 9 9 9 9 9 9 9 9 9 9 9 9 9 2 9 9 9 9 9 9 9 9 9 9 9 9 9 9 9 9 4 9 9 9 4 9 9 9 9 0 9 9 9 9 9 9 9 9 2 9 9 9 9 9 9 9 9 9 9 9 9 9 3 9 0 9 4 9 1 9 0 3 9 9 9 9 9 9 
88	9 9 9 9 9 9 9 9 9 9 9 4 0 0 9 9 9 9 9 9 9 9 9 9 0 9 9 9 9 9 9 9 9 9 1 9 9 0 9 9 4 9 9 9 9 9 9 9 9 9 9 1 9 9 9 9 9 9 9 9 9 9 9 9 0 9 9 9 9 9 9 9 9 9 9 9 9 9 9 3 9 9 9 9 9 9 9 0 9 9 9 9 9 9 9 9 9 9 9 9 
89	9 9 9 9 9 9 9 9 2 9 9 9 9 9 9 9 9 9 9 9 9 0 9 9 9 9 9 9 9 9 9 9 9 9 9 9 0 9 9 3 9 9 9 9 9 9 9 9 9 9 9 9 9 9 9 9 9 9 9 9 9 9 1 9 9 9 0 9 9 9 9 9 9 1 9 9 9 9 9 9 9 9 9 9 9 3 9 9 0 9 1 9 1 9 9 9 9 9 9 9 
90	9 9 9 9 9 9 9 9 9 9 9 9 9 9 9 9 0 3 9 9 9 9 9 9 9 9 9 9 9 9 9 9 9 9 9 9 9 9 9 9 9 9 1 9 9 3 9 9 9 9 9 9 9 9 9 9 9 9 9 9 9 9 9 9 2 4 9 9 9 9 9 9 9 9 3 2 3 9 9 9 9 9 9 9 9 3 9 9 9 0 9 9 9 9 9 9 9 9 9 9 
91	9 9 0 9 4 9 9 9 9 9 9 9 9 9 9 0 9 9 9 9 9 9 9 9 9 9 9 9 9 9 9 9 9 9 3 9 9 9 9 9 9 9 9 9 9 9 9 9 9 9 9 9 9 9 9 9 9 9 9 9 9 9 9 9 9 9 9 9 9 9 9 9 9 9 9 9 9 9 9 3 3 9 1 9 9 9 9 9 9 9 0 9 9 9 9 9 9 3 0 0 
92	9 9 9 9 9 9 9 9 9 9 9 9 9 9 9 9 9 3 9 9 9 9 9 9 9 9 9 9 4 9 9 9 9 9 9 9 9 9 9 9 9 9 9 9 9 9 9 9 9 9 9 9 9 9 9 9 9 9 9 9 9 9 9 9 9 9 0 9 9 9 9 9 9 9 9 9 9 9 9 9 2 9 9 9 9 9 9 9 2 9 9 0 2 9 0 3 3 9 4 9 
93	9 9 9 2 9 9 9 9 9 9 2 9 9 9 9 2 9 9 9 9 9 9 9 3 9 9 9 9 9 9 9 9 9 9 9 9 9 9 9 9 9 9 9 9 4 9 9 9 9 9 9 9 9 9 9 9 9 9 9 9 9 3 9 9 9 9 9 0 0 9 9 2 9 9 9 4 9 9 9 9 9 9 9 9 9 9 9 9 9 9 9 9 0 9 9 9 9 9 9 9 
94	9 9 9 9 9 9 9 9 3 9 9 9 9 9 9 9 9 9 9 9 9 9 9 9 9 9 9 9 9 9 9 9 9 9 0 9 9 9 9 9 9 9 9 9 9 9 9 9 9 9 9 9 9 9 9 9 9 9 9 9 9 9 9 9 9 9 9 9 9 9 9 9 9 9 9 9 4 3 9 9 9 9 9 1 9 9 9 9 9 2 2 9 9 3 2 3 9 9 9 9 
95	3 1 9 4 9 9 9 9 9 9 9 9 9 9 9 3 9 9 9 9 9 2 9 9 9 9 9 9 9 9 9 9 9 9 9 9 9 9 9 9 9 9 9 9 9 9 9 9 9 9 1 9 9 9 4 9 9 9 9 9 9 9 9 9 0 9 9 4 9 9 4 9 9 9 9 9 9 9 9 9 9 9 9 9 9 9 9 9 9 9 9 9 9 9 0 9 9 9 9 9 
96	9 9 0 9 9 9 9 9 9 9 9 9 9 9 9 9 9 9 9 9 9 9 1 9 9 9 9 9 9 9 9 2 9 9 9 9 9 9 3 9 9 9 9 9 9 9 9 9 9 9 4 9 9 9 9 9 9 4 9 9 9 9 9 9 9 9 9 9 9 9 9 9 9 9 9 9 9 9 9 4 9 9 9 2 9 9 9 0 0 9 9 9 9 9 9 0 9 9 9 9 
97	9 9 9 0 9 9 9 9 9 9 9 9 9 9 9 9 9 9 9 9 3 9 9 9 9 9 9 0 9 2 3 9 9 9 2 2 2 9 9 9 9 9 9 9 9 9 9 9 9 9 9 9 9 9 1 9 9 9 9 9 9 9 9 9 1 9 9 9 9 9 9 9 9 9 9 9 9 9 9 9 9 9 9 9 9 9 9 9 9 9 9 9 9 9 9 9 0 9 9 9 
98	9 9 9 9 9 9 9 2 9 9 9 9 9 9 9 3 9 9 9 0 9 9 9 9 9 9 9 9 9 1 9 9 9 1 9 9 9 9 9 9 9 9 9 2 9 9 9 9 9 9 9 9 9 9 9 9 9 9 9 9 9 9 9 9 9 9 9 9 9 9 9 9 9 1 9 9 9 9 9 0 9 9 9 9 9 9 0 9 9 9 9 9 4 9 9 9 9 0 9 9 
99	9 9 3 9 9 9 9 9 9 9 9 9 0 9 9 9 9 9 9 9 9 9 9 9 9 9 9 9 9 9 9 9 9 9 9 9 9 2 9 9 9 9 9 9 9 9 9 9 9 9 9 9 9 9 9 9 9 9 9 9 9 9 9 9 9 9 3 9 9 9 9 9 9 9 9 9 9 9 9 9 9 9 9 9 9 9 9 9 9 9 9 9 0 0 9 3 9 0 3 0 
100	9 9 9 9 3 9 9 9 9 9 9 9 9 9 9 9 9 9 9 9 9 9 9 0 9 9 9 9 9 9 9 9 9 9 9 9 9 9 9 9 9 9 9 9 9 9 9 9 4 9 9 9 9 9 9 9 9 9 9 9 4 9 1 9 9 9 9 9 0 9 9 9 9 9 9 9 9 9 9 9 9 2 9 9 9 9 2 9 9 9 0 2 9 9 9 9 9 9 9 0;